column=9;
row=9;
Board=[|2,0,0,1,0,0,0,0,0|0,3,0,0,6,0,0,8,0|0,0,0,2,0,0,5,0,0|0,0,6,0,4,0,3,0,0|3,0,1,0,0,0,0,7,4|4,7,0,0,2,0,0,0,5|0,0,0,0,0,9,8,5,2|0,0,0,6,0,0,0,0,3|0,0,0,8,0,0,7,0,0|];
horizontal=[|0,0,0,1,2,0,1,1|0,0,0,0,0,2,0,0|0,0,0,1,0,0,2,0|1,0,0,0,2,1,0,1|2,2,1,0,0,1,0,0|1,1,0,0,1,2,0,0|0,0,0,0,0,0,2,2|0,0,0,2,0,0,2,0|0,2,0,0,0,0,0,0|];
vertical=[|2,0,0,0,0,0,2,1,2|1,1,0,2,0,1,1,0,0|2,1,0,0,0,2,2,0,0|2,0,2,0,1,0,1,0,2|0,1,0,2,0,1,0,1,1|1,0,2,0,0,0,0,2,2|1,0,0,1,0,0,0,2,0|1,1,0,0,0,2,0,1,1|];
